c Reduced graph for zeroin.i.2_0 generated by Cyril Grelier
p edge 102 2158
e 1 2
e 1 3
e 1 6
e 1 7
e 1 8
e 1 9
e 1 10
e 1 11
e 1 12
e 1 13
e 1 14
e 1 15
e 1 16
e 1 17
e 1 18
e 1 19
e 1 20
e 1 21
e 1 22
e 1 23
e 1 24
e 1 25
e 1 26
e 1 27
e 1 28
e 1 29
e 1 30
e 1 31
e 1 38
e 1 39
e 1 41
e 1 42
e 1 43
e 1 45
e 1 46
e 1 48
e 1 49
e 1 51
e 1 52
e 1 53
e 1 54
e 1 55
e 1 57
e 1 58
e 1 59
e 1 60
e 1 61
e 1 62
e 1 63
e 1 64
e 1 65
e 1 66
e 1 67
e 1 69
e 1 70
e 1 71
e 1 72
e 1 73
e 1 74
e 1 75
e 1 77
e 1 78
e 1 79
e 1 80
e 1 81
e 1 82
e 1 83
e 1 84
e 1 85
e 1 86
e 1 88
e 1 89
e 1 90
e 1 91
e 1 92
e 1 93
e 1 94
e 1 95
e 1 96
e 1 97
e 1 98
e 1 99
e 1 100
e 1 101
e 1 102
e 2 3
e 2 6
e 2 7
e 2 8
e 2 9
e 2 10
e 2 11
e 2 12
e 2 13
e 2 14
e 2 15
e 2 16
e 2 17
e 2 18
e 2 19
e 2 20
e 2 21
e 2 22
e 2 23
e 2 24
e 2 25
e 2 26
e 2 27
e 2 28
e 2 29
e 2 30
e 2 31
e 2 38
e 2 39
e 2 41
e 2 42
e 2 43
e 2 45
e 2 46
e 2 48
e 2 49
e 2 51
e 2 52
e 2 53
e 2 54
e 2 55
e 2 57
e 2 58
e 2 59
e 2 60
e 2 61
e 2 62
e 2 63
e 2 64
e 2 65
e 2 66
e 2 67
e 2 69
e 2 70
e 2 71
e 2 72
e 2 73
e 2 74
e 2 75
e 2 77
e 2 78
e 2 79
e 2 80
e 2 81
e 2 82
e 2 83
e 2 84
e 2 85
e 2 86
e 2 88
e 2 89
e 2 90
e 2 91
e 2 92
e 2 93
e 2 94
e 2 95
e 2 96
e 2 97
e 2 98
e 2 99
e 2 100
e 2 101
e 2 102
e 3 6
e 3 7
e 3 8
e 3 9
e 3 10
e 3 11
e 3 12
e 3 13
e 3 14
e 3 15
e 3 16
e 3 17
e 3 18
e 3 19
e 3 20
e 3 21
e 3 22
e 3 23
e 3 24
e 3 25
e 3 26
e 3 27
e 3 28
e 3 29
e 3 30
e 3 31
e 3 38
e 3 39
e 3 41
e 3 42
e 3 43
e 3 45
e 3 46
e 3 48
e 3 49
e 3 51
e 3 52
e 3 53
e 3 54
e 3 55
e 3 57
e 3 58
e 3 59
e 3 60
e 3 61
e 3 62
e 3 63
e 3 64
e 3 65
e 3 66
e 3 67
e 3 69
e 3 70
e 3 71
e 3 72
e 3 73
e 3 74
e 3 75
e 3 77
e 3 78
e 3 79
e 3 80
e 3 81
e 3 82
e 3 83
e 3 84
e 3 85
e 3 86
e 3 88
e 3 89
e 3 90
e 3 91
e 3 92
e 3 93
e 3 94
e 3 95
e 3 96
e 3 97
e 3 98
e 3 99
e 3 100
e 3 101
e 3 102
e 4 5
e 4 15
e 4 20
e 4 21
e 4 22
e 4 23
e 4 24
e 4 25
e 4 26
e 4 27
e 4 28
e 4 29
e 4 30
e 4 31
e 4 32
e 4 33
e 4 34
e 4 35
e 4 36
e 4 37
e 4 38
e 4 39
e 4 40
e 4 41
e 4 42
e 4 43
e 4 44
e 4 45
e 4 46
e 4 47
e 4 48
e 4 49
e 4 50
e 4 51
e 4 52
e 4 53
e 4 54
e 4 55
e 4 56
e 4 57
e 4 58
e 4 59
e 4 60
e 4 61
e 4 62
e 4 63
e 4 64
e 4 65
e 4 66
e 4 67
e 4 68
e 4 69
e 4 70
e 4 71
e 4 72
e 4 73
e 4 74
e 4 75
e 4 76
e 4 77
e 4 78
e 4 79
e 4 80
e 4 81
e 4 82
e 4 83
e 4 84
e 4 85
e 4 86
e 4 87
e 4 88
e 4 89
e 4 90
e 4 91
e 4 92
e 4 93
e 4 94
e 4 95
e 4 96
e 4 97
e 4 98
e 4 99
e 4 100
e 4 101
e 4 102
e 5 15
e 5 20
e 5 21
e 5 22
e 5 23
e 5 24
e 5 25
e 5 26
e 5 27
e 5 28
e 5 29
e 5 30
e 5 31
e 5 32
e 5 33
e 5 34
e 5 35
e 5 36
e 5 37
e 5 38
e 5 39
e 5 40
e 5 41
e 5 42
e 5 43
e 5 44
e 5 45
e 5 46
e 5 47
e 5 48
e 5 49
e 5 50
e 5 51
e 5 52
e 5 53
e 5 54
e 5 55
e 5 56
e 5 57
e 5 58
e 5 59
e 5 60
e 5 61
e 5 62
e 5 63
e 5 64
e 5 65
e 5 66
e 5 67
e 5 68
e 5 69
e 5 70
e 5 71
e 5 72
e 5 73
e 5 74
e 5 75
e 5 76
e 5 77
e 5 78
e 5 79
e 5 80
e 5 81
e 5 82
e 5 83
e 5 84
e 5 85
e 5 86
e 5 87
e 5 88
e 5 89
e 5 90
e 5 91
e 5 92
e 5 93
e 5 94
e 5 95
e 5 96
e 5 97
e 5 98
e 5 99
e 5 100
e 6 7
e 6 8
e 6 9
e 6 10
e 6 11
e 6 12
e 6 13
e 6 14
e 6 15
e 6 16
e 6 17
e 6 18
e 6 19
e 6 20
e 6 21
e 6 22
e 6 23
e 6 24
e 6 25
e 6 26
e 6 27
e 6 28
e 6 29
e 6 30
e 6 31
e 6 38
e 6 39
e 6 41
e 6 42
e 6 43
e 6 45
e 6 46
e 6 48
e 6 49
e 6 51
e 6 52
e 6 53
e 6 55
e 6 57
e 6 58
e 6 59
e 6 60
e 6 61
e 6 62
e 6 63
e 6 65
e 6 66
e 6 67
e 6 69
e 6 70
e 6 71
e 6 72
e 6 74
e 6 75
e 6 77
e 6 78
e 6 79
e 6 80
e 6 81
e 6 82
e 6 84
e 6 85
e 6 86
e 6 88
e 6 89
e 6 90
e 6 92
e 6 93
e 6 94
e 6 95
e 6 96
e 6 97
e 6 98
e 6 99
e 6 100
e 6 101
e 6 102
e 7 8
e 7 9
e 7 10
e 7 11
e 7 12
e 7 13
e 7 14
e 7 15
e 7 16
e 7 17
e 7 18
e 7 19
e 7 20
e 7 21
e 7 22
e 7 23
e 7 24
e 7 25
e 7 26
e 7 27
e 7 28
e 7 29
e 7 30
e 7 31
e 7 38
e 7 39
e 7 41
e 7 42
e 7 43
e 7 45
e 7 46
e 7 48
e 7 49
e 7 51
e 7 52
e 7 53
e 7 55
e 7 57
e 7 58
e 7 59
e 7 60
e 7 61
e 7 62
e 7 63
e 7 65
e 7 66
e 7 67
e 7 69
e 7 70
e 7 71
e 7 72
e 7 74
e 7 75
e 7 77
e 7 78
e 7 79
e 7 80
e 7 81
e 7 82
e 7 84
e 7 85
e 7 86
e 7 88
e 7 89
e 7 90
e 7 92
e 7 93
e 7 94
e 7 95
e 7 96
e 7 97
e 7 98
e 7 99
e 7 100
e 7 101
e 7 102
e 8 9
e 8 10
e 8 11
e 8 12
e 8 13
e 8 14
e 8 15
e 8 16
e 8 17
e 8 18
e 8 19
e 8 20
e 8 21
e 8 22
e 8 23
e 8 24
e 8 25
e 8 26
e 8 27
e 8 28
e 8 29
e 8 30
e 8 31
e 8 38
e 8 39
e 8 41
e 8 42
e 8 43
e 8 45
e 8 46
e 8 48
e 8 49
e 8 51
e 8 52
e 8 53
e 8 55
e 8 57
e 8 58
e 8 59
e 8 60
e 8 61
e 8 62
e 8 63
e 8 65
e 8 66
e 8 67
e 8 69
e 8 70
e 8 71
e 8 72
e 8 74
e 8 75
e 8 77
e 8 78
e 8 79
e 8 80
e 8 81
e 8 82
e 8 84
e 8 85
e 8 86
e 8 88
e 8 89
e 8 90
e 8 92
e 8 93
e 8 94
e 8 95
e 8 96
e 8 97
e 8 98
e 8 99
e 8 100
e 8 101
e 8 102
e 9 10
e 9 11
e 9 12
e 9 13
e 9 14
e 9 15
e 9 16
e 9 17
e 9 18
e 9 19
e 9 20
e 9 21
e 9 22
e 9 23
e 9 24
e 9 25
e 9 26
e 9 27
e 9 28
e 9 29
e 9 30
e 9 31
e 9 38
e 9 39
e 9 41
e 9 42
e 9 43
e 9 45
e 9 46
e 9 48
e 9 49
e 9 51
e 9 52
e 9 53
e 9 55
e 9 57
e 9 58
e 9 59
e 9 60
e 9 61
e 9 62
e 9 63
e 9 65
e 9 66
e 9 67
e 9 69
e 9 70
e 9 71
e 9 72
e 9 74
e 9 75
e 9 77
e 9 78
e 9 79
e 9 80
e 9 81
e 9 82
e 9 84
e 9 85
e 9 86
e 9 88
e 9 89
e 9 90
e 9 92
e 9 93
e 9 94
e 9 95
e 9 96
e 9 97
e 9 98
e 9 99
e 9 100
e 9 101
e 9 102
e 10 11
e 10 12
e 10 13
e 10 14
e 10 15
e 10 16
e 10 17
e 10 18
e 10 19
e 10 20
e 10 21
e 10 22
e 10 23
e 10 24
e 10 25
e 10 26
e 10 27
e 10 28
e 10 29
e 10 30
e 10 31
e 10 38
e 10 39
e 10 41
e 10 42
e 10 43
e 10 45
e 10 46
e 10 48
e 10 49
e 10 51
e 10 52
e 10 53
e 10 55
e 10 57
e 10 58
e 10 59
e 10 60
e 10 61
e 10 62
e 10 63
e 10 65
e 10 66
e 10 67
e 10 69
e 10 70
e 10 71
e 10 72
e 10 74
e 10 75
e 10 77
e 10 78
e 10 79
e 10 80
e 10 81
e 10 82
e 10 84
e 10 85
e 10 86
e 10 88
e 10 89
e 10 90
e 10 92
e 10 93
e 10 94
e 10 95
e 10 96
e 10 97
e 10 98
e 10 99
e 10 100
e 10 101
e 10 102
e 11 12
e 11 13
e 11 14
e 11 15
e 11 16
e 11 17
e 11 18
e 11 19
e 11 20
e 11 21
e 11 22
e 11 23
e 11 24
e 11 25
e 11 26
e 11 27
e 11 28
e 11 29
e 11 30
e 11 31
e 11 41
e 11 42
e 11 43
e 11 45
e 11 46
e 11 48
e 11 49
e 11 51
e 11 52
e 11 53
e 11 54
e 11 55
e 11 57
e 11 58
e 11 63
e 11 64
e 11 65
e 11 66
e 11 67
e 11 69
e 11 70
e 11 71
e 11 72
e 11 73
e 11 74
e 11 75
e 11 77
e 11 78
e 11 79
e 11 80
e 11 81
e 11 82
e 11 83
e 11 84
e 11 85
e 11 86
e 11 88
e 11 89
e 11 90
e 11 91
e 11 92
e 11 93
e 11 94
e 11 95
e 11 96
e 11 97
e 11 98
e 11 99
e 11 100
e 11 101
e 11 102
e 12 13
e 12 14
e 12 15
e 12 16
e 12 17
e 12 18
e 12 19
e 12 20
e 12 21
e 12 22
e 12 23
e 12 24
e 12 25
e 12 26
e 12 27
e 12 28
e 12 29
e 12 30
e 12 31
e 12 38
e 12 39
e 12 41
e 12 42
e 12 43
e 12 45
e 12 46
e 12 48
e 12 49
e 12 51
e 12 52
e 12 53
e 12 55
e 12 57
e 12 58
e 12 59
e 12 60
e 12 61
e 12 62
e 12 63
e 12 65
e 12 66
e 12 67
e 12 69
e 12 70
e 12 72
e 12 74
e 12 75
e 12 77
e 12 78
e 12 79
e 12 80
e 12 81
e 12 82
e 12 84
e 12 85
e 12 86
e 12 88
e 12 89
e 12 90
e 12 92
e 12 93
e 12 94
e 12 95
e 12 96
e 12 97
e 12 98
e 12 99
e 12 100
e 12 101
e 12 102
e 13 14
e 13 15
e 13 16
e 13 17
e 13 18
e 13 19
e 13 20
e 13 21
e 13 22
e 13 23
e 13 24
e 13 25
e 13 26
e 13 27
e 13 28
e 13 29
e 13 30
e 13 41
e 13 42
e 13 43
e 13 45
e 13 46
e 13 48
e 13 49
e 13 51
e 13 52
e 13 53
e 13 54
e 13 55
e 13 57
e 13 58
e 13 63
e 13 64
e 13 65
e 13 66
e 13 67
e 13 69
e 13 70
e 13 71
e 13 72
e 13 73
e 13 74
e 13 75
e 13 77
e 13 78
e 13 79
e 13 80
e 13 81
e 13 82
e 13 83
e 13 84
e 13 85
e 13 86
e 13 88
e 13 89
e 13 90
e 13 91
e 13 92
e 13 93
e 13 94
e 13 95
e 13 96
e 13 97
e 13 98
e 13 99
e 13 100
e 13 101
e 13 102
e 14 15
e 14 16
e 14 17
e 14 18
e 14 19
e 14 20
e 14 21
e 14 22
e 14 23
e 14 24
e 14 25
e 14 26
e 14 27
e 14 28
e 14 29
e 14 30
e 14 41
e 14 42
e 14 43
e 14 45
e 14 46
e 14 48
e 14 49
e 14 51
e 14 52
e 14 53
e 14 54
e 14 55
e 14 57
e 14 58
e 14 63
e 14 64
e 14 65
e 14 66
e 14 67
e 14 69
e 14 70
e 14 71
e 14 72
e 14 73
e 14 74
e 14 75
e 14 77
e 14 78
e 14 79
e 14 80
e 14 81
e 14 82
e 14 83
e 14 84
e 14 85
e 14 86
e 14 88
e 14 89
e 14 90
e 14 92
e 14 93
e 14 94
e 14 95
e 14 96
e 14 97
e 14 98
e 14 99
e 14 100
e 14 101
e 14 102
e 15 16
e 15 17
e 15 18
e 15 19
e 15 20
e 15 21
e 15 22
e 15 23
e 15 24
e 15 25
e 15 26
e 15 27
e 15 28
e 15 29
e 15 30
e 15 33
e 15 34
e 15 35
e 15 36
e 15 37
e 15 41
e 15 42
e 15 43
e 15 45
e 15 46
e 15 48
e 15 49
e 15 51
e 15 52
e 15 53
e 15 55
e 15 57
e 15 58
e 15 63
e 15 65
e 15 66
e 15 67
e 15 69
e 15 70
e 15 72
e 15 74
e 15 75
e 15 77
e 15 78
e 15 79
e 15 80
e 15 81
e 15 82
e 15 84
e 15 85
e 15 86
e 15 88
e 15 89
e 15 90
e 15 92
e 15 93
e 15 94
e 15 95
e 15 96
e 15 97
e 15 98
e 15 99
e 15 100
e 16 17
e 16 18
e 16 19
e 16 20
e 16 21
e 16 22
e 16 23
e 16 24
e 16 25
e 16 26
e 16 27
e 16 28
e 16 29
e 16 30
e 16 41
e 16 42
e 16 43
e 16 45
e 16 46
e 16 48
e 16 49
e 16 51
e 16 52
e 16 53
e 16 54
e 16 55
e 16 57
e 16 58
e 16 63
e 16 64
e 16 65
e 16 66
e 16 67
e 16 69
e 16 70
e 16 71
e 16 72
e 16 73
e 16 74
e 16 75
e 16 77
e 16 78
e 16 79
e 16 80
e 16 81
e 16 82
e 16 84
e 16 85
e 16 86
e 16 88
e 16 89
e 16 90
e 16 92
e 16 93
e 16 94
e 16 95
e 16 96
e 16 97
e 16 98
e 16 99
e 16 100
e 16 101
e 16 102
e 17 18
e 17 19
e 17 20
e 17 21
e 17 22
e 17 23
e 17 24
e 17 25
e 17 26
e 17 27
e 17 28
e 17 29
e 17 30
e 17 41
e 17 42
e 17 43
e 17 45
e 17 46
e 17 48
e 17 49
e 17 51
e 17 52
e 17 53
e 17 54
e 17 55
e 17 57
e 17 58
e 17 63
e 17 64
e 17 65
e 17 66
e 17 67
e 17 69
e 17 70
e 17 71
e 17 72
e 17 74
e 17 75
e 17 77
e 17 78
e 17 79
e 17 80
e 17 81
e 17 82
e 17 84
e 17 85
e 17 86
e 17 88
e 17 89
e 17 90
e 17 92
e 17 93
e 17 94
e 17 95
e 17 96
e 17 97
e 17 98
e 17 99
e 17 100
e 17 101
e 17 102
e 18 19
e 18 20
e 18 21
e 18 22
e 18 23
e 18 24
e 18 25
e 18 26
e 18 27
e 18 28
e 18 29
e 18 30
e 18 41
e 18 42
e 18 43
e 18 45
e 18 46
e 18 48
e 18 49
e 18 51
e 18 52
e 18 53
e 18 54
e 18 55
e 18 57
e 18 58
e 18 63
e 18 65
e 18 66
e 18 67
e 18 69
e 18 70
e 18 71
e 18 72
e 18 74
e 18 75
e 18 77
e 18 78
e 18 79
e 18 80
e 18 81
e 18 82
e 18 84
e 18 85
e 18 86
e 18 88
e 18 89
e 18 90
e 18 92
e 18 93
e 18 94
e 18 95
e 18 96
e 18 97
e 18 98
e 18 99
e 18 100
e 18 101
e 18 102
e 19 20
e 19 21
e 19 22
e 19 23
e 19 24
e 19 25
e 19 26
e 19 27
e 19 28
e 19 29
e 19 30
e 19 41
e 19 42
e 19 43
e 19 45
e 19 46
e 19 48
e 19 49
e 19 51
e 19 52
e 19 53
e 19 55
e 19 57
e 19 58
e 19 63
e 19 65
e 19 66
e 19 67
e 19 69
e 19 70
e 19 72
e 19 74
e 19 75
e 19 77
e 19 78
e 19 79
e 19 80
e 19 81
e 19 82
e 19 84
e 19 85
e 19 86
e 19 88
e 19 89
e 19 90
e 19 92
e 19 93
e 19 94
e 19 95
e 19 96
e 19 97
e 19 98
e 19 99
e 19 100
e 19 101
e 19 102
e 20 21
e 20 22
e 20 23
e 20 24
e 20 25
e 20 26
e 20 27
e 20 28
e 20 29
e 20 30
e 20 33
e 20 34
e 20 35
e 20 36
e 20 37
e 20 41
e 20 42
e 20 45
e 20 49
e 20 51
e 20 52
e 20 55
e 20 57
e 20 58
e 20 65
e 20 66
e 20 67
e 20 70
e 20 74
e 20 75
e 20 77
e 20 78
e 20 79
e 20 80
e 20 81
e 20 84
e 20 85
e 20 86
e 20 88
e 20 89
e 20 92
e 20 93
e 20 94
e 20 95
e 20 96
e 20 98
e 20 99
e 21 22
e 21 23
e 21 24
e 21 25
e 21 26
e 21 27
e 21 28
e 21 29
e 21 30
e 21 33
e 21 34
e 21 35
e 21 36
e 21 37
e 21 41
e 21 42
e 21 45
e 21 49
e 21 51
e 21 52
e 21 55
e 21 57
e 21 58
e 21 65
e 21 66
e 21 67
e 21 70
e 21 74
e 21 75
e 21 77
e 21 78
e 21 79
e 21 80
e 21 81
e 21 84
e 21 85
e 21 86
e 21 88
e 21 89
e 21 92
e 21 93
e 21 94
e 21 95
e 21 96
e 21 98
e 21 99
e 22 23
e 22 24
e 22 25
e 22 26
e 22 27
e 22 28
e 22 29
e 22 30
e 22 33
e 22 34
e 22 35
e 22 36
e 22 37
e 22 41
e 22 42
e 22 45
e 22 49
e 22 51
e 22 52
e 22 55
e 22 57
e 22 58
e 22 65
e 22 66
e 22 67
e 22 70
e 22 74
e 22 75
e 22 77
e 22 78
e 22 79
e 22 80
e 22 81
e 22 84
e 22 85
e 22 86
e 22 88
e 22 89
e 22 92
e 22 93
e 22 94
e 22 95
e 22 96
e 22 98
e 22 99
e 23 24
e 23 25
e 23 26
e 23 27
e 23 28
e 23 29
e 23 30
e 23 33
e 23 34
e 23 35
e 23 36
e 23 37
e 23 41
e 23 42
e 23 45
e 23 49
e 23 51
e 23 52
e 23 55
e 23 57
e 23 58
e 23 65
e 23 66
e 23 67
e 23 70
e 23 74
e 23 75
e 23 77
e 23 78
e 23 79
e 23 80
e 23 81
e 23 84
e 23 85
e 23 86
e 23 88
e 23 89
e 23 92
e 23 93
e 23 94
e 23 95
e 23 96
e 23 98
e 23 99
e 24 25
e 24 26
e 24 27
e 24 28
e 24 29
e 24 30
e 24 41
e 24 42
e 24 45
e 24 49
e 24 51
e 24 52
e 24 55
e 24 57
e 24 58
e 24 65
e 24 66
e 24 67
e 24 69
e 24 70
e 24 74
e 24 75
e 24 77
e 24 78
e 24 79
e 24 80
e 24 81
e 24 84
e 24 85
e 24 86
e 24 88
e 24 89
e 24 92
e 24 93
e 24 94
e 24 95
e 24 96
e 24 98
e 24 99
e 24 100
e 25 26
e 25 27
e 25 28
e 25 29
e 25 30
e 25 41
e 25 42
e 25 45
e 25 49
e 25 51
e 25 52
e 25 55
e 25 57
e 25 58
e 25 65
e 25 66
e 25 67
e 25 70
e 25 74
e 25 75
e 25 78
e 25 79
e 25 84
e 25 85
e 25 86
e 25 88
e 25 89
e 25 92
e 26 27
e 26 28
e 26 29
e 26 30
e 26 41
e 26 42
e 26 45
e 26 49
e 26 51
e 26 52
e 26 55
e 26 57
e 26 65
e 26 66
e 26 67
e 26 70
e 26 74
e 26 75
e 26 78
e 26 79
e 26 84
e 26 85
e 26 86
e 26 88
e 26 92
e 27 28
e 27 30
e 27 33
e 27 34
e 27 35
e 27 36
e 27 37
e 27 42
e 27 45
e 27 58
e 27 69
e 27 77
e 27 80
e 27 81
e 27 84
e 27 85
e 27 89
e 27 93
e 27 94
e 27 95
e 27 96
e 27 98
e 27 99
e 27 100
e 28 33
e 28 34
e 28 35
e 28 36
e 28 37
e 28 58
e 28 69
e 28 77
e 28 80
e 28 81
e 28 84
e 28 85
e 28 89
e 28 93
e 28 94
e 28 95
e 28 96
e 28 98
e 28 99
e 28 100
e 29 30
e 29 41
e 29 42
e 29 45
e 29 51
e 29 52
e 29 65
e 29 66
e 29 67
e 29 75
e 29 79
e 29 86
e 30 41
e 30 42
e 30 45
e 30 51
e 30 52
e 30 65
e 30 66
e 30 67
e 30 75
e 31 32
e 31 33
e 31 34
e 31 35
e 31 36
e 31 37
e 31 38
e 31 39
e 31 40
e 31 44
e 31 47
e 31 50
e 31 54
e 31 56
e 31 59
e 31 60
e 31 61
e 31 62
e 31 64
e 31 68
e 31 73
e 31 76
e 31 83
e 31 87
e 31 91
e 32 33
e 32 34
e 32 35
e 32 36
e 32 37
e 32 38
e 32 39
e 32 40
e 32 43
e 32 44
e 32 46
e 32 47
e 32 48
e 32 50
e 32 53
e 32 54
e 32 56
e 32 59
e 32 60
e 32 61
e 32 62
e 32 63
e 32 64
e 32 68
e 32 71
e 32 72
e 32 73
e 32 76
e 32 82
e 32 83
e 32 87
e 32 90
e 32 91
e 33 34
e 33 35
e 33 36
e 33 37
e 33 38
e 33 39
e 33 40
e 33 44
e 33 47
e 33 50
e 33 54
e 33 56
e 33 59
e 33 60
e 33 61
e 33 62
e 33 64
e 33 68
e 33 69
e 33 71
e 33 73
e 33 76
e 33 83
e 33 87
e 33 91
e 34 35
e 34 36
e 34 37
e 34 38
e 34 39
e 34 40
e 34 44
e 34 47
e 34 50
e 34 54
e 34 56
e 34 59
e 34 60
e 34 61
e 34 62
e 34 64
e 34 68
e 34 69
e 34 71
e 34 73
e 34 76
e 34 83
e 34 87
e 34 91
e 35 36
e 35 37
e 35 38
e 35 39
e 35 40
e 35 44
e 35 47
e 35 50
e 35 54
e 35 56
e 35 59
e 35 60
e 35 61
e 35 62
e 35 64
e 35 68
e 35 69
e 35 71
e 35 73
e 35 76
e 35 83
e 35 87
e 35 91
e 36 37
e 36 38
e 36 39
e 36 40
e 36 44
e 36 47
e 36 50
e 36 54
e 36 56
e 36 59
e 36 60
e 36 61
e 36 62
e 36 64
e 36 68
e 36 69
e 36 71
e 36 73
e 36 76
e 36 83
e 36 87
e 36 91
e 37 38
e 37 39
e 37 40
e 37 44
e 37 47
e 37 50
e 37 54
e 37 56
e 37 59
e 37 60
e 37 61
e 37 62
e 37 64
e 37 68
e 37 69
e 37 71
e 37 73
e 37 76
e 37 83
e 37 87
e 37 91
e 38 39
e 38 40
e 38 44
e 38 47
e 38 50
e 38 54
e 38 56
e 38 59
e 38 60
e 38 61
e 38 62
e 38 64
e 38 68
e 38 73
e 38 76
e 38 83
e 38 87
e 38 91
e 39 40
e 39 44
e 39 47
e 39 50
e 39 54
e 39 56
e 39 59
e 39 60
e 39 61
e 39 62
e 39 64
e 39 68
e 39 73
e 39 76
e 39 83
e 39 87
e 39 91
e 40 43
e 40 44
e 40 46
e 40 47
e 40 48
e 40 50
e 40 53
e 40 54
e 40 56
e 40 59
e 40 60
e 40 61
e 40 62
e 40 63
e 40 64
e 40 68
e 40 71
e 40 72
e 40 73
e 40 76
e 40 82
e 40 83
e 40 87
e 40 91
e 41 49
e 41 51
e 41 75
e 41 79
e 41 86
e 41 88
e 41 92
e 42 45
e 42 51
e 42 52
e 42 65
e 42 66
e 42 67
e 43 44
e 43 46
e 43 47
e 43 48
e 43 50
e 43 53
e 43 56
e 43 63
e 43 68
e 43 72
e 43 76
e 43 82
e 43 90
e 43 97
e 44 46
e 44 47
e 44 48
e 44 50
e 44 53
e 44 54
e 44 56
e 44 59
e 44 60
e 44 61
e 44 62
e 44 63
e 44 64
e 44 68
e 44 71
e 44 72
e 44 73
e 44 76
e 44 83
e 44 87
e 44 91
e 45 52
e 45 65
e 45 66
e 45 67
e 46 47
e 46 48
e 46 50
e 46 53
e 46 56
e 46 63
e 46 68
e 46 72
e 46 82
e 46 90
e 46 97
e 47 48
e 47 50
e 47 53
e 47 54
e 47 56
e 47 59
e 47 60
e 47 61
e 47 62
e 47 63
e 47 64
e 47 68
e 47 71
e 47 73
e 47 76
e 47 83
e 47 87
e 47 91
e 48 50
e 48 53
e 48 56
e 48 63
e 48 72
e 48 82
e 48 90
e 48 97
e 49 55
e 49 57
e 49 70
e 49 74
e 49 78
e 50 53
e 50 54
e 50 56
e 50 59
e 50 60
e 50 61
e 50 62
e 50 64
e 50 68
e 50 71
e 50 73
e 50 76
e 50 83
e 50 87
e 50 91
e 51 52
e 51 75
e 52 67
e 53 63
e 53 72
e 53 82
e 53 90
e 53 97
e 54 56
e 54 64
e 54 68
e 54 73
e 54 76
e 54 83
e 54 87
e 54 91
e 55 57
e 55 70
e 55 74
e 55 78
e 56 59
e 56 60
e 56 61
e 56 62
e 56 64
e 56 68
e 56 71
e 56 73
e 56 76
e 56 83
e 56 87
e 56 91
e 57 70
e 57 74
e 57 78
e 58 77
e 58 80
e 58 81
e 58 89
e 59 60
e 59 61
e 59 62
e 59 68
e 59 76
e 59 87
e 60 61
e 60 62
e 60 68
e 60 76
e 60 87
e 61 62
e 61 68
e 61 76
e 61 87
e 62 68
e 62 76
e 62 87
e 63 72
e 63 82
e 63 90
e 63 97
e 64 68
e 64 73
e 64 76
e 64 83
e 64 87
e 64 91
e 65 66
e 68 71
e 68 73
e 68 76
e 68 83
e 68 87
e 68 91
e 69 100
e 69 101
e 69 102
e 70 74
e 71 76
e 71 87
e 72 82
e 72 90
e 72 97
e 73 76
e 73 83
e 73 87
e 73 91
e 76 83
e 76 87
e 76 91
e 77 80
e 77 81
e 79 86
e 80 81
e 82 90
e 82 97
e 83 87
e 83 91
e 84 85
e 87 91
e 88 92
e 90 97
e 93 94
e 95 96
e 98 99
e 101 102
